NAME          COPTPROB
OBJSENSE
  MIN
ROWS
 N  __OBJ___
 L  C106    
 L  C129    
 L  C153    
COLUMNS
    MARKER    'MARKER'                 'INTORG'
    x2665     __OBJ___  23
    x2665     C153      -1
    x3420     __OBJ___  12
    x3420     C106      -1
    x4440     __OBJ___  34
    x4440     C106      -1
    x4440     C129      -1
    x4935     __OBJ___  39
    x4935     C129      -1
    x4935     C153      -1
    x4950     __OBJ___  32
    x4950     C129      -1
    x5091     __OBJ___  30
    x5091     C106      -1
    x5091     C153      -1
    MARKER    'MARKER'                 'INTEND'
RHS
    RHS       __OBJ___  -2074
    RHS       C106      -1
    RHS       C129      -1
    RHS       C153      -1
BOUNDS
 UP BOUND     x2665     1
 UP BOUND     x3420     1
 UP BOUND     x4440     1
 UP BOUND     x4935     1
 UP BOUND     x4950     1
 UP BOUND     x5091     1
ENDATA
